50
100
100
100
99
97
94
93
91
90
89
88
87
87
86
86
79
77
72
71
70
69
68
68
65
64
61
60
59
51
50
50
43
42
39
37
29
27
25
24
21
19
17
16
13
13
8
6
6
3
2
1
